15
0 111 418 322 223 496 356 479 424 305 207 263 52 103 410 
111 0 145 233 341 455 190 391 222 324 187 418 100 249 367 
418 145 0 173 129 190 66 383 470 481 353 50 441 368 363 
322 233 173 0 378 479 226 115 479 402 83 241 286 88 114 
223 341 129 378 0 120 481 189 277 400 145 362 424 200 409 
496 455 190 479 120 0 258 458 323 300 409 355 270 238 466 
356 190 66 226 481 258 0 254 197 341 309 360 146 177 85 
479 391 383 115 189 458 254 0 362 174 358 109 221 67 401 
424 222 470 479 277 323 197 362 0 66 421 224 398 178 400 
305 324 481 402 400 300 341 174 66 0 188 337 299 93 349 
207 187 353 83 145 409 309 358 421 188 0 448 368 398 369 
263 418 50 241 362 355 360 109 224 337 448 0 234 483 106 
52 100 441 286 424 270 146 221 398 299 368 234 0 307 348 
103 249 368 88 200 238 177 67 178 93 398 483 307 0 203 
410 367 363 114 409 466 85 401 400 349 369 106 348 203 0 
